<number of tasks>
89

<cycle time>
12

<task times>
1 1
2 2
3 3
4 4
5 5
6 6
7 7
8 8
9 9
10 10
11 1
12 2
13 3
14 4
15 5
16 6
17 7
18 8
19 9
20 10
21 1
22 2
23 3
24 4
25 5
26 6
27 7
28 8
29 9
30 10
31 1
32 2
33 3
34 4
35 5
36 6
37 7
38 8
39 9
40 10
41 1
42 2
43 3
44 4
45 5
46 6
47 7
48 8
49 9
50 10
51 1
52 2
53 3
54 4
55 5
56 6
57 7
58 8
59 9
60 10
61 1
62 2
63 3
64 4
65 5
66 6
67 7
68 8
69 9
70 10
71 1
72 2
73 3
74 4
75 5
76 6
77 7
78 8
79 9
80 10
81 1
82 2
83 3
84 4
85 5
86 6
87 7
88 8
89 9

<precedence relations>
1,2
2,3
3,4
4,5
4,6
4,7
4,8
4,9
5,10
6,11
7,12
8,18
9,18
10,14
11,12
12,13
13,14
14,15
14,16
15,17
16,54
17,18
18,19
18,20
19,22
20,21
20,28
21,54
22,23
23,24
24,25
25,26
25,27
25,29
26,37
27,33
28,29
29,31
30,54
31,32
32,33
33,34
34,35
35,36
35,37
36,38
37,38
38,39
39,40
39,41
39,42
39,43
40,44
41,53
42,53
43,45
44,52
45,46
46,47
47,48
47,49
49,50
50,51
51,52
52,53
53,68
53,69
53,70
53,71
54,55
55,56
56,57
57,58
57,59
57,60
57,61
57,62
57,63
57,64
57,65
57,66
58,67
59,67
60,67
61,67
62,67
63,67
64,67
65,67
66,67
67,73
68,72
69,72
70,72
71,73
72,78
72,80
73,74
74,75
74,76
75,77
76,81
77,78
78,79
79,81
80,81
81,82
81,84
81,85
82,83
83,86
84,86
85,86
86,87
87,88
87,89

<setup times forward>
1,30:1
2,30:1
3,30:1
4,5:1
4,6:1
4,7:1
4,30:1
5,6:2
5,8:1
5,9:1
5,10:1
5,11:2
5,12:2
5,13:2
5,30:2
6,5:2
6,7:2
6,8:1
6,9:1
6,10:1
7,6:2
7,8:1
7,9:1
7,10:1
7,11:2
7,12:2
7,30:2
8,5:1
8,6:1
8,7:1
8,11:1
8,12:1
8,13:1
8,15:1
8,16:1
8,17:1
8,18:2
8,30:1
9,5:1
9,6:1
9,7:1
9,11:1
9,12:1
9,13:1
9,15:1
9,16:1
9,17:1
9,18:2
9,30:1
10,6:1
10,7:1
10,11:1
10,12:1
10,13:1
10,30:1
11,5:2
11,7:2
11,8:1
11,9:1
11,10:1
12,5:2
12,8:1
12,9:1
12,10:1
13,5:2
13,8:1
13,9:1
13,10:1
13,14:1
14,15:1
14,16:1
14,30:1
15,8:1
15,9:1
15,16:2
16,8:1
16,9:1
16,15:2
16,17:2
16,18:3
16,19:2
16,22:2
16,23:3
16,24:3
16,25:3
16,26:3
16,28:1
16,29:1
16,30:2
16,31:1
16,32:1
16,34:3
16,35:3
16,37:3
16,38:1
16,40:3
16,42:3
16,44:1
16,45:3
16,47:2
16,48:3
16,49:2
16,50:3
16,51:3
16,52:3
16,53:1
16,54:1
16,68:1
16,69:1
16,72:1
16,80:3
17,8:1
17,9:1
17,16:2
17,18:1
18,16:3
18,19:1
18,20:3
18,30:1
19,16:2
19,20:2
19,21:2
19,28:1
19,54:1
19,55:2
19,56:2
19,57:1
19,58:1
19,59:1
19,60:1
19,61:1
19,62:2
19,64:2
19,66:2
19,67:2
20,19:2
20,22:2
20,23:3
20,24:3
20,25:3
20,26:3
20,28:1
20,30:2
21,19:2
21,22:2
21,23:3
21,24:3
21,25:3
21,26:3
21,28:1
21,29:1
21,30:2
21,31:1
21,32:1
21,34:3
21,35:3
21,37:3
21,38:1
21,40:3
21,42:3
21,44:1
21,45:3
21,47:2
21,48:3
21,49:2
21,50:3
21,51:3
21,52:3
21,53:1
21,54:1
21,68:1
21,69:1
21,72:1
21,80:3
22,16:2
22,20:2
22,21:2
22,23:1
22,28:1
22,54:1
22,55:2
22,56:2
22,57:1
22,58:1
22,59:1
22,60:1
22,61:1
22,62:2
22,64:2
22,66:2
22,67:2
23,16:3
23,20:3
23,21:3
23,28:2
23,30:1
23,54:2
23,55:3
23,56:3
23,58:2
23,59:2
23,62:3
23,63:1
23,64:3
23,65:1
23,66:3
23,67:3
24,16:3
24,20:3
24,21:3
24,28:2
24,30:1
24,54:2
24,55:3
24,56:3
24,58:2
24,59:2
24,62:3
24,63:1
24,64:3
24,65:1
24,66:3
24,67:3
25,16:3
25,20:3
25,21:3
25,27:3
25,28:2
25,29:2
25,30:1
25,54:2
25,55:3
25,56:3
25,58:2
25,59:2
25,62:3
25,63:1
25,64:3
25,65:1
25,66:3
25,67:3
26,16:3
26,20:3
26,21:3
26,27:3
26,28:2
26,29:2
26,30:1
26,31:2
26,32:2
26,33:3
26,36:3
26,54:2
26,55:3
26,56:3
26,58:2
26,59:2
26,62:3
26,63:1
26,64:3
26,65:1
26,66:3
26,67:3
27,26:3
27,28:1
27,29:1
27,30:2
27,31:1
27,32:1
27,54:1
27,57:3
27,58:1
27,59:1
27,60:3
27,61:3
27,63:2
27,65:2
28,16:1
28,19:1
28,21:1
28,22:1
28,23:2
28,24:2
28,25:2
28,26:2
28,27:1
28,30:1
28,55:1
28,56:1
28,57:2
28,60:2
28,61:2
28,62:1
28,63:1
28,64:1
28,65:1
28,66:1
28,67:1
29,16:1
29,21:1
29,26:2
29,27:1
29,30:1
29,55:1
29,56:1
29,57:2
29,60:2
29,61:2
29,62:1
29,63:1
29,64:1
29,65:1
29,66:1
29,67:1
30,1:1
30,2:1
30,3:1
30,4:1
30,5:2
30,7:2
30,8:1
30,9:1
30,10:1
30,14:1
30,16:2
30,18:1
30,20:2
30,21:2
30,23:1
30,24:1
30,25:1
30,26:1
30,27:2
30,28:1
30,29:1
30,31:1
30,32:1
30,33:2
30,34:1
30,35:1
30,36:2
30,37:1
30,38:1
30,39:2
30,40:1
30,41:2
30,42:1
30,43:2
30,44:1
30,45:1
30,46:2
30,48:1
30,50:1
30,51:1
30,52:1
30,53:1
30,54:1
30,68:1
30,69:1
30,70:2
30,71:2
30,72:1
30,80:1
31,16:1
31,21:1
31,26:2
31,27:1
31,30:1
31,55:1
31,56:1
31,57:2
31,60:2
31,61:2
31,62:1
31,63:1
31,64:1
31,65:1
31,66:1
31,67:1
32,16:1
32,21:1
32,26:2
32,27:1
32,30:1
32,33:1
32,55:1
32,56:1
32,57:2
32,60:2
32,61:2
32,62:1
32,63:1
32,64:1
32,65:1
32,66:1
32,67:1
33,26:3
33,30:2
33,34:3
33,54:1
33,57:3
33,58:1
33,59:1
33,60:3
33,61:3
33,63:2
33,65:2
34,16:3
34,21:3
34,30:1
34,54:2
34,55:3
34,56:3
34,58:2
34,59:2
34,62:3
34,63:1
34,64:3
34,65:1
34,66:3
34,67:3
35,16:3
35,21:3
35,30:1
35,36:3
35,54:2
35,55:3
35,56:3
35,58:2
35,59:2
35,62:3
35,63:1
35,64:3
35,65:1
35,66:3
35,67:3
36,26:3
36,30:2
36,37:3
36,38:1
36,54:1
36,57:3
36,58:1
36,59:1
36,60:3
36,61:3
36,63:2
36,65:2
37,16:3
37,21:3
37,30:1
37,36:3
37,38:2
37,54:2
37,55:3
37,56:3
37,58:2
37,59:2
37,62:3
37,63:1
37,64:3
37,65:1
37,66:3
37,67:3
38,16:1
38,21:1
38,30:1
38,39:1
38,55:1
38,56:1
38,57:2
38,60:2
38,61:2
38,62:1
38,63:1
38,64:1
38,65:1
38,66:1
38,67:1
39,30:2
39,40:3
39,42:3
39,54:1
39,57:3
39,58:1
39,59:1
39,60:3
39,61:3
39,63:2
39,65:2
40,16:3
40,21:3
40,30:1
40,41:3
40,43:3
40,44:2
40,46:3
40,47:1
40,49:1
40,54:2
40,55:3
40,56:3
40,58:2
40,59:2
40,62:3
40,63:1
40,64:3
40,65:1
40,66:3
40,67:3
41,30:2
41,40:3
41,42:3
41,44:1
41,45:3
41,47:2
41,48:3
41,49:2
41,50:3
41,51:3
41,52:3
41,53:1
41,54:1
41,57:3
41,58:1
41,59:1
41,60:3
41,61:3
41,63:2
41,65:2
42,16:3
42,21:3
42,30:1
42,41:3
42,43:3
42,44:2
42,46:3
42,47:1
42,49:1
42,53:2
42,54:2
42,55:3
42,56:3
42,58:2
42,59:2
42,62:3
42,63:1
42,64:3
42,65:1
42,66:3
42,67:3
43,30:2
43,40:3
43,42:3
43,44:1
43,45:3
43,54:1
43,57:3
43,58:1
43,59:1
43,60:3
43,61:3
43,63:2
43,65:2
44,16:1
44,21:1
44,30:1
44,41:1
44,42:2
44,43:1
44,45:2
44,46:1
44,47:1
44,48:2
44,49:1
44,50:2
44,51:2
44,52:2
44,55:1
44,56:1
44,57:2
44,60:2
44,61:2
44,62:1
44,63:1
44,64:1
44,65:1
44,66:1
44,67:1
45,16:3
45,21:3
45,30:1
45,41:3
45,44:2
45,46:3
45,54:2
45,55:3
45,56:3
45,58:2
45,59:2
45,62:3
45,63:1
45,64:3
45,65:1
45,66:3
45,67:3
46,30:2
46,40:3
46,42:3
46,44:1
46,47:2
46,54:1
46,57:3
46,58:1
46,59:1
46,60:3
46,61:3
46,63:2
46,65:2
47,16:2
47,21:2
47,40:1
47,41:2
47,42:1
47,44:1
47,48:1
47,54:1
47,55:2
47,56:2
47,57:1
47,58:1
47,59:1
47,60:1
47,61:1
47,62:2
47,64:2
47,66:2
47,67:2
48,16:3
48,21:3
48,30:1
48,41:3
48,44:2
48,49:1
48,53:2
48,54:2
48,55:3
48,56:3
48,58:2
48,59:2
48,62:3
48,63:1
48,64:3
48,65:1
48,66:3
48,67:3
48,68:2
48,69:2
48,70:3
48,71:3
48,72:2
48,73:2
48,74:2
48,76:1
48,78:2
48,79:3
48,81:1
48,82:1
48,83:1
48,88:2
48,89:2
49,16:2
49,21:2
49,40:1
49,41:2
49,42:1
49,44:1
49,48:1
49,50:1
49,54:1
49,55:2
49,56:2
49,57:1
49,58:1
49,59:1
49,60:1
49,61:1
49,62:2
49,64:2
49,66:2
49,67:2
50,16:3
50,21:3
50,30:1
50,41:3
50,44:2
50,54:2
50,55:3
50,56:3
50,58:2
50,59:2
50,62:3
50,63:1
50,64:3
50,65:1
50,66:3
50,67:3
51,16:3
51,21:3
51,30:1
51,41:3
51,44:2
51,54:2
51,55:3
51,56:3
51,58:2
51,59:2
51,62:3
51,63:1
51,64:3
51,65:1
51,66:3
51,67:3
52,16:3
52,21:3
52,30:1
52,41:3
52,53:2
52,54:2
52,55:3
52,56:3
52,58:2
52,59:2
52,62:3
52,63:1
52,64:3
52,65:1
52,66:3
52,67:3
53,16:1
53,21:1
53,30:1
53,48:2
53,55:1
53,56:1
53,57:2
53,60:2
53,61:2
53,62:1
53,63:1
53,64:1
53,65:1
53,66:1
53,67:1
53,70:1
53,71:1
54,19:1
54,22:1
54,23:2
54,24:2
54,25:2
54,26:2
54,27:1
54,33:1
54,34:2
54,35:2
54,36:1
54,37:2
54,39:1
54,40:2
54,41:1
54,42:2
54,43:1
54,45:2
54,46:1
54,47:1
54,48:2
54,49:1
54,50:2
54,51:2
54,52:2
54,55:1
54,70:1
54,71:1
54,80:2
55,19:2
55,22:2
55,23:3
55,24:3
55,25:3
55,26:3
55,28:1
55,29:1
55,31:1
55,32:1
55,34:3
55,35:3
55,37:3
55,38:1
55,40:3
55,42:3
55,44:1
55,45:3
55,47:2
55,48:3
55,49:2
55,50:3
55,51:3
55,52:3
55,53:1
55,68:1
55,69:1
55,72:1
55,80:3
56,19:2
56,22:2
56,23:3
56,24:3
56,25:3
56,26:3
56,28:1
56,29:1
56,31:1
56,32:1
56,34:3
56,35:3
56,37:3
56,38:1
56,40:3
56,42:3
56,44:1
56,45:3
56,47:2
56,48:3
56,49:2
56,50:3
56,51:3
56,52:3
56,53:1
56,57:3
56,68:1
56,69:1
56,72:1
56,80:3
57,19:1
57,22:1
57,27:3
57,28:2
57,29:2
57,31:2
57,32:2
57,33:3
57,36:3
57,38:2
57,39:3
57,41:3
57,43:3
57,44:2
57,46:3
57,47:1
57,49:1
57,53:2
57,58:2
57,59:2
57,62:3
57,63:1
57,64:3
57,65:1
57,66:3
57,68:2
57,69:2
57,70:3
57,71:3
57,72:2
58,19:1
58,22:1
58,23:2
58,24:2
58,25:2
58,26:2
58,27:1
58,33:1
58,34:2
58,35:2
58,36:1
58,37:2
58,39:1
58,40:2
58,41:1
58,42:2
58,43:1
58,45:2
58,46:1
58,47:1
58,48:2
58,49:1
58,50:2
58,51:2
58,52:2
58,60:2
58,61:2
58,62:1
58,63:1
58,64:1
58,65:1
58,66:1
58,67:1
58,70:1
58,71:1
58,80:2
59,19:1
59,22:1
59,23:2
59,24:2
59,25:2
59,26:2
59,27:1
59,33:1
59,34:2
59,35:2
59,36:1
59,37:2
59,39:1
59,40:2
59,41:1
59,42:2
59,43:1
59,45:2
59,46:1
59,47:1
59,48:2
59,49:1
59,50:2
59,51:2
59,52:2
59,60:2
59,61:2
59,62:1
59,63:1
59,64:1
59,65:1
59,66:1
59,67:1
59,70:1
59,71:1
59,80:2
60,19:1
60,22:1
60,27:3
60,28:2
60,29:2
60,31:2
60,32:2
60,33:3
60,36:3
60,38:2
60,39:3
60,41:3
60,43:3
60,44:2
60,46:3
60,47:1
60,49:1
60,53:2
60,58:2
60,59:2
60,62:3
60,63:1
60,64:3
60,65:1
60,66:3
60,67:3
60,68:2
60,69:2
60,70:3
60,71:3
60,72:2
61,19:1
61,22:1
61,27:3
61,28:2
61,29:2
61,31:2
61,32:2
61,33:3
61,36:3
61,38:2
61,39:3
61,41:3
61,43:3
61,44:2
61,46:3
61,47:1
61,49:1
61,53:2
61,58:2
61,59:2
61,62:3
61,63:1
61,64:3
61,65:1
61,66:3
61,67:3
61,68:2
61,69:2
61,70:3
61,71:3
61,72:2
62,19:2
62,22:2
62,23:3
62,24:3
62,25:3
62,26:3
62,28:1
62,29:1
62,31:1
62,32:1
62,34:3
62,35:3
62,37:3
62,38:1
62,40:3
62,42:3
62,44:1
62,45:3
62,47:2
62,48:3
62,49:2
62,50:3
62,51:3
62,52:3
62,53:1
62,58:1
62,59:1
62,60:3
62,61:3
62,63:2
62,65:2
62,68:1
62,69:1
62,72:1
62,80:3
63,23:1
63,24:1
63,25:1
63,26:1
63,27:2
63,28:1
63,29:1
63,31:1
63,32:1
63,33:2
63,34:1
63,35:1
63,36:2
63,37:1
63,38:1
63,39:2
63,40:1
63,41:2
63,42:1
63,43:2
63,44:1
63,45:1
63,46:2
63,48:1
63,50:1
63,51:1
63,52:1
63,53:1
63,58:1
63,59:1
63,60:1
63,61:1
63,62:2
63,64:2
63,66:2
63,67:2
63,68:1
63,69:1
63,70:2
63,71:2
63,72:1
63,80:1
64,19:2
64,22:2
64,23:3
64,24:3
64,25:3
64,26:3
64,28:1
64,29:1
64,31:1
64,32:1
64,34:3
64,35:3
64,37:3
64,38:1
64,40:3
64,42:3
64,44:1
64,45:3
64,47:2
64,48:3
64,49:2
64,50:3
64,51:3
64,52:3
64,53:1
64,58:1
64,59:1
64,60:3
64,61:3
64,63:2
64,65:2
64,68:1
64,69:1
64,72:1
64,80:3
65,23:1
65,24:1
65,25:1
65,26:1
65,27:2
65,28:1
65,29:1
65,31:1
65,32:1
65,33:2
65,34:1
65,35:1
65,36:2
65,37:1
65,38:1
65,39:2
65,40:1
65,41:2
65,42:1
65,43:2
65,44:1
65,45:1
65,46:2
65,48:1
65,50:1
65,51:1
65,52:1
65,53:1
65,58:1
65,59:1
65,60:1
65,61:1
65,62:2
65,64:2
65,66:2
65,67:2
65,68:1
65,69:1
65,70:2
65,71:2
65,72:1
65,80:1
66,19:2
66,22:2
66,23:3
66,24:3
66,25:3
66,26:3
66,28:1
66,29:1
66,31:1
66,32:1
66,34:3
66,35:3
66,37:3
66,38:1
66,40:3
66,42:3
66,44:1
66,45:3
66,47:2
66,48:3
66,49:2
66,50:3
66,51:3
66,52:3
66,53:1
66,58:1
66,59:1
66,60:3
66,61:3
66,63:2
66,65:2
66,68:1
66,69:1
66,72:1
66,80:3
67,19:2
67,22:2
67,23:3
67,24:3
67,25:3
67,26:3
67,28:1
67,29:1
67,31:1
67,32:1
67,34:3
67,35:3
67,37:3
67,38:1
67,40:3
67,42:3
67,44:1
67,45:3
67,47:2
67,48:3
67,49:2
67,50:3
67,51:3
67,52:3
67,53:1
67,68:1
67,69:1
67,72:1
67,73:1
67,80:3
68,16:1
68,21:1
68,30:1
68,48:2
68,55:1
68,56:1
68,57:2
68,60:2
68,61:2
68,62:1
68,63:1
68,64:1
68,65:1
68,66:1
68,67:1
68,70:1
68,71:1
68,75:2
68,76:1
68,77:2
69,16:1
69,21:1
69,30:1
69,48:2
69,55:1
69,56:1
69,57:2
69,60:2
69,61:2
69,62:1
69,63:1
69,64:1
69,65:1
69,66:1
69,67:1
69,70:1
69,71:1
69,75:2
69,76:1
69,77:2
70,30:2
70,48:3
70,54:1
70,57:3
70,58:1
70,59:1
70,60:3
70,61:3
70,63:2
70,65:2
70,68:1
70,69:1
70,72:1
70,73:1
70,74:1
70,75:3
70,76:2
70,77:3
71,30:2
71,48:3
71,54:1
71,57:3
71,58:1
71,59:1
71,60:3
71,61:3
71,63:2
71,65:2
71,68:1
71,69:1
71,72:1
71,73:1
71,80:3
72,16:1
72,21:1
72,30:1
72,48:2
72,55:1
72,56:1
72,57:2
72,60:2
72,61:2
72,62:1
72,63:1
72,64:1
72,65:1
72,66:1
72,67:1
72,71:1
72,75:2
72,76:1
72,77:2
72,80:2
73,48:2
73,70:1
73,80:2
74,48:2
74,70:1
74,75:2
74,76:1
74,80:2
75,68:2
75,69:2
75,70:3
75,72:2
75,76:1
76,48:1
76,68:1
76,69:1
76,70:2
76,72:1
76,75:1
76,77:1
76,78:1
76,79:2
76,80:1
77,68:2
77,69:2
77,70:3
77,72:2
77,76:1
77,78:2
78,48:2
78,76:1
78,79:1
78,80:2
79,48:3
79,76:2
79,80:3
79,81:2
80,16:3
80,21:3
80,30:1
80,54:2
80,55:3
80,56:3
80,58:2
80,59:2
80,62:3
80,63:1
80,64:3
80,65:1
80,66:3
80,67:3
80,71:3
80,73:2
80,74:2
80,76:1
80,78:2
80,79:3
80,81:1
81,48:1
81,84:1
81,85:1
82,48:1
82,84:1
82,85:1
83,48:1
83,84:1
83,85:1
83,86:1
84,82:1
84,83:1
85,82:1
85,83:1
87,88:2
87,89:2
88,48:2
89,48:2

<setup times backward>
1,30:1
2,30:1
3,30:1
4,30:1
5,1:1
5,2:1
5,3:1
5,4:1
5,6:2
5,8:1
5,9:1
5,11:2
5,12:2
5,13:2
5,30:2
7,1:1
7,2:1
7,3:1
7,4:1
7,6:2
7,8:1
7,9:1
7,10:1
7,11:2
7,30:2
8,6:1
8,11:1
8,12:1
8,13:1
8,15:1
8,17:1
8,30:1
9,6:1
9,11:1
9,12:1
9,13:1
9,15:1
9,17:1
9,30:1
10,6:1
10,11:1
10,12:1
10,13:1
10,30:1
14,6:1
14,11:1
14,12:1
14,13:1
14,30:1
16,1:1
16,2:1
16,3:1
16,4:1
16,6:2
16,8:1
16,9:1
16,10:1
16,11:2
16,12:2
16,13:2
16,14:1
16,15:2
16,17:2
16,18:3
16,19:2
16,22:2
16,23:3
16,24:3
16,25:3
16,26:3
16,28:1
16,29:1
16,30:2
16,31:1
16,32:1
16,34:3
16,35:3
16,37:3
16,38:1
16,40:3
16,42:3
16,44:1
16,45:3
16,47:2
16,48:3
16,49:2
16,50:3
16,51:3
16,52:3
16,53:1
16,68:1
16,69:1
16,72:1
16,80:3
19,18:1
19,57:1
19,60:1
19,61:1
20,1:1
20,2:1
20,3:1
20,4:1
20,6:2
20,8:1
20,9:1
20,10:1
20,11:2
20,12:2
20,13:2
20,14:1
20,15:2
20,17:2
20,18:3
20,19:2
20,22:2
20,23:3
20,24:3
20,25:3
20,26:3
20,30:2
21,1:1
21,2:1
21,3:1
21,4:1
21,6:2
21,8:1
21,9:1
21,10:1
21,11:2
21,12:2
21,13:2
21,14:1
21,15:2
21,17:2
21,18:3
21,19:2
21,22:2
21,23:3
21,24:3
21,25:3
21,26:3
21,28:1
21,29:1
21,30:2
21,31:1
21,32:1
21,34:3
21,35:3
21,37:3
21,38:1
21,40:3
21,42:3
21,44:1
21,45:3
21,47:2
21,48:3
21,49:2
21,50:3
21,51:3
21,52:3
21,53:1
21,68:1
21,69:1
21,72:1
21,80:3
22,18:1
22,57:1
22,60:1
22,61:1
27,1:1
27,2:1
27,3:1
27,4:1
27,6:2
27,8:1
27,9:1
27,10:1
27,11:2
27,12:2
27,13:2
27,14:1
27,15:2
27,17:2
27,18:3
27,19:2
27,22:2
27,23:3
27,24:3
27,25:3
27,26:3
27,28:1
27,29:1
27,30:2
27,31:1
27,32:1
27,54:1
27,57:3
27,58:1
27,59:1
27,60:3
27,61:3
27,63:2
27,65:2
28,6:1
28,11:1
28,12:1
28,13:1
28,15:1
28,17:1
28,18:2
28,19:1
28,22:1
28,23:2
28,24:2
28,25:2
28,26:2
28,30:1
28,57:2
28,60:2
28,61:2
28,63:1
28,65:1
29,6:1
29,11:1
29,12:1
29,13:1
29,15:1
29,17:1
29,18:2
29,19:1
29,22:1
29,23:2
29,24:2
29,25:2
29,26:2
29,30:1
29,57:2
29,60:2
29,61:2
29,63:1
29,65:1
30,18:1
30,23:1
30,24:1
30,25:1
30,26:1
30,34:1
30,35:1
30,37:1
30,40:1
30,42:1
30,45:1
30,48:1
30,50:1
30,51:1
30,52:1
30,80:1
31,6:1
31,11:1
31,12:1
31,13:1
31,15:1
31,17:1
31,18:2
31,19:1
31,22:1
31,23:2
31,24:2
31,25:2
31,26:2
31,30:1
31,57:2
31,60:2
31,61:2
31,63:1
31,65:1
32,6:1
32,11:1
32,12:1
32,13:1
32,15:1
32,17:1
32,18:2
32,19:1
32,22:1
32,23:2
32,24:2
32,25:2
32,26:2
32,30:1
32,57:2
32,60:2
32,61:2
32,63:1
32,65:1
33,1:1
33,2:1
33,3:1
33,4:1
33,6:2
33,8:1
33,9:1
33,10:1
33,11:2
33,12:2
33,13:2
33,14:1
33,15:2
33,17:2
33,18:3
33,19:2
33,22:2
33,23:3
33,24:3
33,25:3
33,26:3
33,28:1
33,29:1
33,30:2
33,31:1
33,32:1
33,54:1
33,57:3
33,58:1
33,59:1
33,60:3
33,61:3
33,63:2
33,65:2
36,1:1
36,2:1
36,3:1
36,4:1
36,6:2
36,8:1
36,9:1
36,10:1
36,11:2
36,12:2
36,13:2
36,14:1
36,15:2
36,17:2
36,18:3
36,19:2
36,22:2
36,23:3
36,24:3
36,25:3
36,26:3
36,28:1
36,29:1
36,30:2
36,31:1
36,32:1
36,34:3
36,35:3
36,37:3
36,54:1
36,57:3
36,58:1
36,59:1
36,60:3
36,61:3
36,63:2
36,65:2
38,6:1
38,11:1
38,12:1
38,13:1
38,15:1
38,17:1
38,18:2
38,19:1
38,22:1
38,23:2
38,24:2
38,25:2
38,26:2
38,30:1
38,34:2
38,35:2
38,37:2
38,57:2
38,60:2
38,61:2
38,63:1
38,65:1
39,1:1
39,2:1
39,3:1
39,4:1
39,6:2
39,8:1
39,9:1
39,10:1
39,11:2
39,12:2
39,13:2
39,14:1
39,15:2
39,17:2
39,18:3
39,19:2
39,22:2
39,23:3
39,24:3
39,25:3
39,26:3
39,28:1
39,29:1
39,30:2
39,31:1
39,32:1
39,34:3
39,35:3
39,37:3
39,38:1
39,54:1
39,57:3
39,58:1
39,59:1
39,60:3
39,61:3
39,63:2
39,65:2
41,1:1
41,2:1
41,3:1
41,4:1
41,6:2
41,8:1
41,9:1
41,10:1
41,11:2
41,12:2
41,13:2
41,14:1
41,15:2
41,17:2
41,18:3
41,19:2
41,22:2
41,23:3
41,24:3
41,25:3
41,26:3
41,28:1
41,29:1
41,30:2
41,31:1
41,32:1
41,34:3
41,35:3
41,37:3
41,38:1
41,40:3
41,42:3
41,44:1
41,45:3
41,47:2
41,48:3
41,49:2
41,50:3
41,51:3
41,52:3
41,54:1
41,57:3
41,58:1
41,59:1
41,60:3
41,61:3
41,63:2
41,65:2
43,1:1
43,2:1
43,3:1
43,4:1
43,6:2
43,8:1
43,9:1
43,10:1
43,11:2
43,12:2
43,13:2
43,14:1
43,15:2
43,17:2
43,18:3
43,19:2
43,22:2
43,23:3
43,24:3
43,25:3
43,26:3
43,28:1
43,29:1
43,30:2
43,31:1
43,32:1
43,34:3
43,35:3
43,37:3
43,38:1
43,40:3
43,42:3
43,44:1
43,54:1
43,57:3
43,58:1
43,59:1
43,60:3
43,61:3
43,63:2
43,65:2
44,6:1
44,11:1
44,12:1
44,13:1
44,15:1
44,17:1
44,18:2
44,19:1
44,22:1
44,23:2
44,24:2
44,25:2
44,26:2
44,30:1
44,34:2
44,35:2
44,37:2
44,40:2
44,42:2
44,45:2
44,47:1
44,48:2
44,49:1
44,50:2
44,51:2
44,57:2
44,60:2
44,61:2
44,63:1
44,65:1
46,1:1
46,2:1
46,3:1
46,4:1
46,6:2
46,8:1
46,9:1
46,10:1
46,11:2
46,12:2
46,13:2
46,14:1
46,15:2
46,17:2
46,18:3
46,19:2
46,22:2
46,23:3
46,24:3
46,25:3
46,26:3
46,28:1
46,29:1
46,30:2
46,31:1
46,32:1
46,34:3
46,35:3
46,37:3
46,38:1
46,40:3
46,42:3
46,44:1
46,45:3
46,54:1
46,57:3
46,58:1
46,59:1
46,60:3
46,61:3
46,63:2
46,65:2
47,18:1
47,23:1
47,24:1
47,25:1
47,26:1
47,34:1
47,35:1
47,37:1
47,40:1
47,42:1
47,45:1
47,57:1
47,60:1
47,61:1
49,18:1
49,23:1
49,24:1
49,25:1
49,26:1
49,34:1
49,35:1
49,37:1
49,40:1
49,42:1
49,45:1
49,48:1
49,57:1
49,60:1
49,61:1
53,6:1
53,11:1
53,12:1
53,13:1
53,15:1
53,17:1
53,18:2
53,19:1
53,22:1
53,23:2
53,24:2
53,25:2
53,26:2
53,30:1
53,34:2
53,35:2
53,37:2
53,40:2
53,42:2
53,45:2
53,47:1
53,48:2
53,49:1
53,50:2
53,51:2
53,52:2
53,57:2
53,60:2
53,61:2
53,63:1
53,65:1
54,6:1
54,11:1
54,12:1
54,13:1
54,15:1
54,17:1
54,18:2
54,19:1
54,22:1
54,23:2
54,24:2
54,25:2
54,26:2
54,30:1
54,34:2
54,35:2
54,37:2
54,40:2
54,42:2
54,45:2
54,47:1
54,48:2
54,49:1
54,50:2
54,51:2
54,52:2
54,80:2
55,1:1
55,2:1
55,3:1
55,4:1
55,6:2
55,8:1
55,9:1
55,10:1
55,11:2
55,12:2
55,13:2
55,14:1
55,15:2
55,17:2
55,18:3
55,19:2
55,22:2
55,23:3
55,24:3
55,25:3
55,26:3
55,28:1
55,29:1
55,30:2
55,31:1
55,32:1
55,34:3
55,35:3
55,37:3
55,38:1
55,40:3
55,42:3
55,44:1
55,45:3
55,47:2
55,48:3
55,49:2
55,50:3
55,51:3
55,52:3
55,53:1
55,54:1
55,68:1
55,69:1
55,72:1
55,80:3
56,1:1
56,2:1
56,3:1
56,4:1
56,6:2
56,8:1
56,9:1
56,10:1
56,11:2
56,12:2
56,13:2
56,14:1
56,15:2
56,17:2
56,18:3
56,19:2
56,22:2
56,23:3
56,24:3
56,25:3
56,26:3
56,28:1
56,29:1
56,30:2
56,31:1
56,32:1
56,34:3
56,35:3
56,37:3
56,38:1
56,40:3
56,42:3
56,44:1
56,45:3
56,47:2
56,48:3
56,49:2
56,50:3
56,51:3
56,52:3
56,53:1
56,54:1
56,68:1
56,69:1
56,72:1
56,80:3
58,6:1
58,11:1
58,12:1
58,13:1
58,15:1
58,17:1
58,18:2
58,19:1
58,22:1
58,23:2
58,24:2
58,25:2
58,26:2
58,30:1
58,34:2
58,35:2
58,37:2
58,40:2
58,42:2
58,45:2
58,47:1
58,48:2
58,49:1
58,50:2
58,51:2
58,52:2
58,57:2
58,60:2
58,61:2
58,63:1
58,65:1
58,80:2
59,6:1
59,11:1
59,12:1
59,13:1
59,15:1
59,17:1
59,18:2
59,19:1
59,22:1
59,23:2
59,24:2
59,25:2
59,26:2
59,30:1
59,34:2
59,35:2
59,37:2
59,40:2
59,42:2
59,45:2
59,47:1
59,48:2
59,49:1
59,50:2
59,51:2
59,52:2
59,57:2
59,60:2
59,61:2
59,63:1
59,65:1
59,80:2
62,1:1
62,2:1
62,3:1
62,4:1
62,6:2
62,8:1
62,9:1
62,10:1
62,11:2
62,12:2
62,13:2
62,14:1
62,15:2
62,17:2
62,18:3
62,19:2
62,22:2
62,23:3
62,24:3
62,25:3
62,26:3
62,28:1
62,29:1
62,30:2
62,31:1
62,32:1
62,34:3
62,35:3
62,37:3
62,38:1
62,40:3
62,42:3
62,44:1
62,45:3
62,47:2
62,48:3
62,49:2
62,50:3
62,51:3
62,52:3
62,53:1
62,54:1
62,57:3
62,58:1
62,59:1
62,60:3
62,61:3
62,63:2
62,65:2
62,68:1
62,69:1
62,72:1
62,80:3
63,18:1
63,23:1
63,24:1
63,25:1
63,26:1
63,34:1
63,35:1
63,37:1
63,40:1
63,42:1
63,45:1
63,48:1
63,50:1
63,51:1
63,52:1
63,57:1
63,60:1
63,61:1
63,80:1
64,1:1
64,2:1
64,3:1
64,4:1
64,6:2
64,8:1
64,9:1
64,10:1
64,11:2
64,12:2
64,13:2
64,14:1
64,15:2
64,17:2
64,18:3
64,19:2
64,22:2
64,23:3
64,24:3
64,25:3
64,26:3
64,28:1
64,29:1
64,30:2
64,31:1
64,32:1
64,34:3
64,35:3
64,37:3
64,38:1
64,40:3
64,42:3
64,44:1
64,45:3
64,47:2
64,48:3
64,49:2
64,50:3
64,51:3
64,52:3
64,53:1
64,54:1
64,57:3
64,58:1
64,59:1
64,60:3
64,61:3
64,63:2
64,65:2
64,68:1
64,69:1
64,72:1
64,80:3
65,18:1
65,23:1
65,24:1
65,25:1
65,26:1
65,34:1
65,35:1
65,37:1
65,40:1
65,42:1
65,45:1
65,48:1
65,50:1
65,51:1
65,52:1
65,57:1
65,60:1
65,61:1
65,80:1
66,1:1
66,2:1
66,3:1
66,4:1
66,6:2
66,8:1
66,9:1
66,10:1
66,11:2
66,12:2
66,13:2
66,14:1
66,15:2
66,17:2
66,18:3
66,19:2
66,22:2
66,23:3
66,24:3
66,25:3
66,26:3
66,28:1
66,29:1
66,30:2
66,31:1
66,32:1
66,34:3
66,35:3
66,37:3
66,38:1
66,40:3
66,42:3
66,44:1
66,45:3
66,47:2
66,48:3
66,49:2
66,50:3
66,51:3
66,52:3
66,53:1
66,54:1
66,57:3
66,58:1
66,59:1
66,60:3
66,61:3
66,63:2
66,65:2
66,68:1
66,69:1
66,72:1
66,80:3
67,1:1
67,2:1
67,3:1
67,4:1
67,6:2
67,8:1
67,9:1
67,10:1
67,11:2
67,12:2
67,13:2
67,14:1
67,15:2
67,17:2
67,18:3
67,19:2
67,22:2
67,23:3
67,24:3
67,25:3
67,26:3
67,28:1
67,29:1
67,30:2
67,31:1
67,32:1
67,34:3
67,35:3
67,37:3
67,38:1
67,40:3
67,42:3
67,44:1
67,45:3
67,47:2
67,48:3
67,49:2
67,50:3
67,51:3
67,52:3
67,53:1
67,54:1
67,57:3
67,58:1
67,59:1
67,60:3
67,61:3
67,63:2
67,65:2
67,68:1
67,69:1
67,72:1
67,80:3
68,6:1
68,11:1
68,12:1
68,13:1
68,15:1
68,17:1
68,18:2
68,19:1
68,22:1
68,23:2
68,24:2
68,25:2
68,26:2
68,30:1
68,34:2
68,35:2
68,37:2
68,40:2
68,42:2
68,45:2
68,47:1
68,48:2
68,49:1
68,50:2
68,51:2
68,52:2
68,57:2
68,60:2
68,61:2
68,63:1
68,65:1
68,75:2
68,76:1
68,77:2
69,6:1
69,11:1
69,12:1
69,13:1
69,15:1
69,17:1
69,18:2
69,19:1
69,22:1
69,23:2
69,24:2
69,25:2
69,26:2
69,30:1
69,34:2
69,35:2
69,37:2
69,40:2
69,42:2
69,45:2
69,47:1
69,48:2
69,49:1
69,50:2
69,51:2
69,52:2
69,57:2
69,60:2
69,61:2
69,63:1
69,65:1
69,75:2
69,76:1
69,77:2
70,1:1
70,2:1
70,3:1
70,4:1
70,6:2
70,8:1
70,9:1
70,10:1
70,11:2
70,12:2
70,13:2
70,14:1
70,15:2
70,17:2
70,18:3
70,19:2
70,22:2
70,23:3
70,24:3
70,25:3
70,26:3
70,28:1
70,29:1
70,30:2
70,31:1
70,32:1
70,34:3
70,35:3
70,37:3
70,38:1
70,40:3
70,42:3
70,44:1
70,45:3
70,47:2
70,48:3
70,49:2
70,50:3
70,51:3
70,52:3
70,53:1
70,54:1
70,57:3
70,58:1
70,59:1
70,60:3
70,61:3
70,63:2
70,65:2
70,68:1
70,69:1
70,73:1
70,74:1
70,75:3
70,76:2
70,77:3
71,1:1
71,2:1
71,3:1
71,4:1
71,6:2
71,8:1
71,9:1
71,10:1
71,11:2
71,12:2
71,13:2
71,14:1
71,15:2
71,17:2
71,18:3
71,19:2
71,22:2
71,23:3
71,24:3
71,25:3
71,26:3
71,28:1
71,29:1
71,30:2
71,31:1
71,32:1
71,34:3
71,35:3
71,37:3
71,38:1
71,40:3
71,42:3
71,44:1
71,45:3
71,47:2
71,48:3
71,49:2
71,50:3
71,51:3
71,52:3
71,53:1
71,54:1
71,57:3
71,58:1
71,59:1
71,60:3
71,61:3
71,63:2
71,65:2
71,68:1
71,69:1
71,72:1
71,80:3
72,6:1
72,11:1
72,12:1
72,13:1
72,15:1
72,17:1
72,18:2
72,19:1
72,22:1
72,23:2
72,24:2
72,25:2
72,26:2
72,30:1
72,34:2
72,35:2
72,37:2
72,40:2
72,42:2
72,45:2
72,47:1
72,48:2
72,49:1
72,50:2
72,51:2
72,52:2
72,57:2
72,60:2
72,61:2
72,63:1
72,65:1
72,75:2
72,76:1
72,77:2
73,6:1
73,11:1
73,12:1
73,13:1
73,15:1
73,17:1
73,18:2
73,19:1
73,22:1
73,23:2
73,24:2
73,25:2
73,26:2
73,30:1
73,34:2
73,35:2
73,37:2
73,40:2
73,42:2
73,45:2
73,47:1
73,48:2
73,49:1
73,50:2
73,51:2
73,52:2
73,57:2
73,60:2
73,61:2
73,63:1
73,65:1
73,80:2
74,6:1
74,11:1
74,12:1
74,13:1
74,15:1
74,17:1
74,18:2
74,19:1
74,22:1
74,23:2
74,24:2
74,25:2
74,26:2
74,30:1
74,34:2
74,35:2
74,37:2
74,40:2
74,42:2
74,45:2
74,47:1
74,48:2
74,49:1
74,50:2
74,51:2
74,52:2
74,57:2
74,60:2
74,61:2
74,63:1
74,65:1
74,80:2
76,18:1
76,23:1
76,24:1
76,25:1
76,26:1
76,34:1
76,35:1
76,37:1
76,40:1
76,42:1
76,45:1
76,48:1
76,50:1
76,51:1
76,52:1
76,57:1
76,60:1
76,61:1
76,75:1
76,77:1
76,80:1
78,6:1
78,11:1
78,12:1
78,13:1
78,15:1
78,17:1
78,18:2
78,19:1
78,22:1
78,23:2
78,24:2
78,25:2
78,26:2
78,30:1
78,34:2
78,35:2
78,37:2
78,40:2
78,42:2
78,45:2
78,47:1
78,48:2
78,49:1
78,50:2
78,51:2
78,52:2
78,57:2
78,60:2
78,61:2
78,63:1
78,65:1
78,75:2
78,76:1
78,77:2
78,80:2
79,1:1
79,2:1
79,3:1
79,4:1
79,6:2
79,8:1
79,9:1
79,10:1
79,11:2
79,12:2
79,13:2
79,14:1
79,15:2
79,17:2
79,18:3
79,19:2
79,22:2
79,23:3
79,24:3
79,25:3
79,26:3
79,28:1
79,29:1
79,30:2
79,31:1
79,32:1
79,34:3
79,35:3
79,37:3
79,38:1
79,40:3
79,42:3
79,44:1
79,45:3
79,47:2
79,48:3
79,49:2
79,50:3
79,51:3
79,52:3
79,53:1
79,54:1
79,57:3
79,58:1
79,59:1
79,60:3
79,61:3
79,63:2
79,65:2
79,68:1
79,69:1
79,72:1
79,73:1
79,74:1
79,75:3
79,76:2
79,77:3
79,78:1
79,80:3
81,18:1
81,23:1
81,24:1
81,25:1
81,26:1
81,34:1
81,35:1
81,37:1
81,40:1
81,42:1
81,45:1
81,48:1
81,50:1
81,51:1
81,52:1
81,57:1
81,60:1
81,61:1
81,75:1
81,77:1
81,80:1
82,18:1
82,23:1
82,24:1
82,25:1
82,26:1
82,34:1
82,35:1
82,37:1
82,40:1
82,42:1
82,45:1
82,48:1
82,50:1
82,51:1
82,52:1
82,57:1
82,60:1
82,61:1
82,75:1
82,77:1
82,80:1
82,84:1
82,85:1
83,18:1
83,23:1
83,24:1
83,25:1
83,26:1
83,34:1
83,35:1
83,37:1
83,40:1
83,42:1
83,45:1
83,48:1
83,50:1
83,51:1
83,52:1
83,57:1
83,60:1
83,61:1
83,75:1
83,77:1
83,80:1
83,84:1
83,85:1
88,6:1
88,11:1
88,12:1
88,13:1
88,15:1
88,17:1
88,18:2
88,19:1
88,22:1
88,23:2
88,24:2
88,25:2
88,26:2
88,30:1
88,34:2
88,35:2
88,37:2
88,40:2
88,42:2
88,45:2
88,47:1
88,48:2
88,49:1
88,50:2
88,51:2
88,52:2
88,57:2
88,60:2
88,61:2
88,63:1
88,65:1
88,75:2
88,76:1
88,77:2
88,80:2
88,81:1
88,82:1
88,83:1
88,84:2
88,85:2
88,86:2
88,87:2
89,6:1
89,11:1
89,12:1
89,13:1
89,15:1
89,17:1
89,18:2
89,19:1
89,22:1
89,23:2
89,24:2
89,25:2
89,26:2
89,30:1
89,34:2
89,35:2
89,37:2
89,40:2
89,42:2
89,45:2
89,47:1
89,48:2
89,49:1
89,50:2
89,51:2
89,52:2
89,57:2
89,60:2
89,61:2
89,63:1
89,65:1
89,75:2
89,76:1
89,77:2
89,80:2
89,81:1
89,82:1
89,83:1
89,84:2
89,85:2
89,86:2
89,87:2

<end>

<optimal SALBP-1 value>
44


<rand seed>
467321153

<Lower Bounds>
Lm1=41
Lms1=41
Lm2=40
Lm3=40
Lm4=41
Best=41

<Optimal Stations (Iterations: 10)>
56
